% demand
num_movements = 27;
loading_factor = [2000, 850, 1950, 950, 1000, 1500, 1800, 1100, 1750, 1450, 1250, 950, 800, 1600, 850, 1150, 1250, 1150, 1250, 1300, 1500, 1500, 1250, 900, 1350, 1600, 1150];
pickup_time = [0, 1, 1, 2, 3, 3, 3, 3, 4, 4, 4, 4, 7, 7, 8, 8, 8, 8, 9, 10, 10, 10, 10, 10, 11, 11, 12];
delivery_time = [2, 2, 2, 4, 6, 4, 4, 4, 6, 8, 9, 6, 8, 8, 9, 9, 9, 9, 10, 11, 11, 11, 11, 11, 13, 12, 13];

% transporter definition
total_capacity = 7000;
num_decks = 3;
capacity = [3000, 1000, 3000];

% ways out of decks
num_ways_out = 1;
paths_out = array3d(decks, ways_out, decks, [
% ways out of deck d1
2, 3, 0, 

% ways out of deck d2
3, 0, 0, 

% ways out of deck d3
0, 0, 0,	

]);

